Nb of jobs, Nb of Machines, Time seed, Machine seed, Upper bound, Lower bound
8,8,-1,-1,-1,-1
Times
66,48,72,97,73,2,96,34
65,83,40,97,9,72,27,10
53,41,27,3,97,73,2,13
83,39,82,4,52,59,30,82
11,70,71,45,2,8,82,70
81,74,15,35,33,2,44,34
16,92,91,40,24,64,47,50
12,23,34,46,2,84,17,18
Machines
1,5,8,2,3,6,4,7
2,1,4,6,3,5,7,8
2,3,6,5,7,8,1,4
4,5,2,3,8,1,7,6
4,2,7,3,8,6,5,1
6,2,1,4,7,3,8,5
5,3,2,4,6,8,1,7
5,2,4,8,6,1,7,3
